(set-info :status unknown)
(declare-fun C () (_ BitVec 49))
(declare-fun %x () (_ BitVec 1))
(declare-fun |ana_WillNotOverflowSignedAdd(%x, trunc(C))| () (_ BitVec 1))
(declare-fun u_%sx () (_ BitVec 8))
(assert
 (let (($x8190 (and (distinct (bvadd ((_ sign_extend 48) %x) C) ((_ sign_extend 48) (bvadd %x ((_ extract 0 0) C)))) true)))
 (let (($x4568 (= |ana_WillNotOverflowSignedAdd(%x, trunc(C))| (_ bv1 1))))
 (let (($x8416 (= (bvadd ((_ sign_extend 1) %x) ((_ sign_extend 1) ((_ extract 0 0) C))) ((_ sign_extend 1) (bvadd %x ((_ extract 0 0) C))))))
 (and (=> $x4568 $x8416) (= u_%sx (_ bv1 8)) $x4568 (= (bvand C (bvshl (_ bv562949953421311 49) (bvsub (_ bv1 49) (_ bv1 49)))) (_ bv0 49)) $x8190)))))
(check-sat)
